NAME          DCAP_3_4_2_500_SS101
ROWS
 N  OBJ
 L  CON1
 L  CON2
 L  CON3
 L  CON4
 L  CON5
 L  CON6
 L  CON7
 L  CON8
 L  CON9
 L  CON10
 L  CON11
 L  CON12
 E  CON13
 E  CON14
 E  CON15
 E  CON16
 E  CON17
 E  CON18
 E  CON19
 E  CON20
COLUMNS
    x[1,1]    OBJ       6.180167      CON1      1.000000    
    x[1,1]    CON7      -1.000000     CON8      -1.000000   
    x[1,2]    OBJ       5.039546      CON2      1.000000    
    x[1,2]    CON8      -1.000000   
    x[2,1]    OBJ       6.732585      CON3      1.000000    
    x[2,1]    CON9      -1.000000     CON10     -1.000000   
    x[2,2]    OBJ       7.443064      CON4      1.000000    
    x[2,2]    CON10     -1.000000   
    x[3,1]    OBJ       6.563535      CON5      1.000000    
    x[3,1]    CON11     -1.000000     CON12     -1.000000   
    x[3,2]    OBJ       6.054841      CON6      1.000000    
    x[3,2]    CON12     -1.000000   
    MARKER    'MARKER'                'INTORG'
    u[1,1]    OBJ       48.076654     CON1      -1.000000   
    u[1,2]    OBJ       49.466655     CON2      -1.000000   
    u[2,1]    OBJ       49.996186     CON3      -1.000000   
    u[2,2]    OBJ       32.230043     CON4      -1.000000   
    u[3,1]    OBJ       20.066487     CON5      -1.000000   
    u[3,2]    OBJ       27.484319     CON6      -1.000000   
    y[1,1,1]  OBJ       5.387781      CON7      0.640176    
    y[1,1,1]  CON13     1.000000    
    y[1,1,2]  OBJ       5.131174      CON8      1.116140    
    y[1,1,2]  CON14     1.000000    
    y[1,2,1]  OBJ       6.752574      CON7      1.355891    
    y[1,2,1]  CON15     1.000000    
    y[1,2,2]  OBJ       8.690260      CON8      0.664513    
    y[1,2,2]  CON16     1.000000    
    y[1,3,1]  OBJ       7.602516      CON7      0.791035    
    y[1,3,1]  CON17     1.000000    
    y[1,3,2]  OBJ       8.927121      CON8      0.761548    
    y[1,3,2]  CON18     1.000000    
    y[1,4,1]  OBJ       8.577647      CON7      0.966135    
    y[1,4,1]  CON19     1.000000    
    y[1,4,2]  OBJ       7.846004      CON8      1.167111    
    y[1,4,2]  CON20     1.000000    
    y[2,1,1]  OBJ       8.288251      CON9      0.640176    
    y[2,1,1]  CON13     1.000000    
    y[2,1,2]  OBJ       5.018364      CON10     1.116140    
    y[2,1,2]  CON14     1.000000    
    y[2,2,1]  OBJ       5.690673      CON9      1.355891    
    y[2,2,1]  CON15     1.000000    
    y[2,2,2]  OBJ       7.656648      CON10     0.664513    
    y[2,2,2]  CON16     1.000000    
    y[2,3,1]  OBJ       9.205938      CON9      0.791035    
    y[2,3,1]  CON17     1.000000    
    y[2,3,2]  OBJ       7.007036      CON10     0.761548    
    y[2,3,2]  CON18     1.000000    
    y[2,4,1]  OBJ       7.660622      CON9      0.966135    
    y[2,4,1]  CON19     1.000000    
    y[2,4,2]  OBJ       7.216370      CON10     1.167111    
    y[2,4,2]  CON20     1.000000    
    y[3,1,1]  OBJ       8.785278      CON11     0.640176    
    y[3,1,1]  CON13     1.000000    
    y[3,1,2]  OBJ       5.329938      CON12     1.116140    
    y[3,1,2]  CON14     1.000000    
    y[3,2,1]  OBJ       8.396875      CON11     1.355891    
    y[3,2,1]  CON15     1.000000    
    y[3,2,2]  OBJ       9.251266      CON12     0.664513    
    y[3,2,2]  CON16     1.000000    
    y[3,3,1]  OBJ       5.879501      CON11     0.791035    
    y[3,3,1]  CON17     1.000000    
    y[3,3,2]  OBJ       8.060973      CON12     0.761548    
    y[3,3,2]  CON18     1.000000    
    y[3,4,1]  OBJ       8.535830      CON11     0.966135    
    y[3,4,1]  CON19     1.000000    
    y[3,4,2]  OBJ       7.924102      CON12     1.167111    
    y[3,4,2]  CON20     1.000000    
    z[1,1]    OBJ       995.468807    CON13     1.000000    
    z[1,2]    OBJ       664.279844    CON14     1.000000    
    z[2,1]    OBJ       746.704047    CON15     1.000000    
    z[2,2]    OBJ       893.212149    CON16     1.000000    
    z[3,1]    OBJ       967.833255    CON17     1.000000    
    z[3,2]    OBJ       601.382910    CON18     1.000000    
    z[4,1]    OBJ       575.891424    CON19     1.000000    
    z[4,2]    OBJ       885.107568    CON20     1.000000    
    MARKER    'MARKER'                 'INTEND'
RHS
    RHS       CON1      -0.000000     CON2      -0.000000   
    RHS       CON3      -0.000000     CON4      -0.000000   
    RHS       CON5      -0.000000     CON6      -0.000000   
    RHS       CON7      -0.000000     CON8      -0.000000   
    RHS       CON9      -0.000000     CON10     -0.000000   
    RHS       CON11     -0.000000     CON12     -0.000000   
    RHS       CON13     1.000000      CON14     1.000000    
    RHS       CON15     1.000000      CON16     1.000000    
    RHS       CON17     1.000000      CON18     1.000000    
    RHS       CON19     1.000000      CON20     1.000000    
BOUNDS
 BV BOUND     u[1,1]  
 BV BOUND     u[1,2]  
 BV BOUND     u[2,1]  
 BV BOUND     u[2,2]  
 BV BOUND     u[3,1]  
 BV BOUND     u[3,2]  
 BV BOUND     y[1,1,1]
 BV BOUND     y[1,1,2]
 BV BOUND     y[1,2,1]
 BV BOUND     y[1,2,2]
 BV BOUND     y[1,3,1]
 BV BOUND     y[1,3,2]
 BV BOUND     y[1,4,1]
 BV BOUND     y[1,4,2]
 BV BOUND     y[2,1,1]
 BV BOUND     y[2,1,2]
 BV BOUND     y[2,2,1]
 BV BOUND     y[2,2,2]
 BV BOUND     y[2,3,1]
 BV BOUND     y[2,3,2]
 BV BOUND     y[2,4,1]
 BV BOUND     y[2,4,2]
 BV BOUND     y[3,1,1]
 BV BOUND     y[3,1,2]
 BV BOUND     y[3,2,1]
 BV BOUND     y[3,2,2]
 BV BOUND     y[3,3,1]
 BV BOUND     y[3,3,2]
 BV BOUND     y[3,4,1]
 BV BOUND     y[3,4,2]
 BV BOUND     z[1,1]  
 BV BOUND     z[1,2]  
 BV BOUND     z[2,1]  
 BV BOUND     z[2,2]  
 BV BOUND     z[3,1]  
 BV BOUND     z[3,2]  
 BV BOUND     z[4,1]  
 BV BOUND     z[4,2]  
ENDATA
